31
20
0 21 22 23 27 29 30
1 22 23 24 25 27 29
2 20 22 23 29 30
3 20 21 22 27 29
4 20 22 26 27 29
5 20 21 23 25 26 29
6 20 22 24 26 27 29
7 20 23 27 29
8 21 22 24 26 27 29
9
10 22 23 24 25 26 30
11 25
12 21 25 27 29
13 21 28 29
14 20 28
15 21 23 25 26 27 28
16 23 27 30
17 22 28
18 29
19
